NAME: I19461-n23-k5
COMMENT : (Fake et al, No of trucks: 5, Optimal value: )
TYPE : CVRP
DIMENSION : 23
EDGE_WEIGHT_TYPE : EUC_2D
CAPACITY : 30
NODE_COORD_SECTION
1 946 848
2 486 185
3 314 990
4 155 297
5 138 904
6 727 900
7 960 405
8 336 499
9 206 442
10 703 192
11 492 91
12 411 740
13 25 42
14 641 642
15 259 188
16 470 589
17 953 308
18 728 136
19 420 642
20 305 110
21 148 736
22 737 732
23 935 1
DEMAND_SECTION
1 0
2 6
3 11
4 1
5 2
6 4
7 3
8 9
9 8
10 10
11 10
12 7
13 6
14 9
15 4
16 5
17 6
18 5
19 9
20 4
21 3
22 3
23 9
DEPOT_SECTION
 1
 -1
 EOF 